gen	cost
1	1423
2	1407
3	1401
4	1389
5	1364
6	1347
7	1345
8	1337
9	1333
10	1333
11	1330
12	1329
13	1329
14	1328
15	1327
16	1327
17	1326
18	1326
19	1326
20	1326
21	1326
22	1326
23	1326
24	1326
25	1326
26	1326
27	1326
28	1326
29	1326
30	1326
31	1326
32	1326
33	1326
34	1326
35	1326
36	1326
37	1326
38	1326
39	1326
40	1326
41	1326
42	1326
43	1326
44	1326
45	1326
46	1326
47	1326
48	1326
49	1326
50	1326

